c SAT
c formula generated with seed 0, probabilty values 0.414000 0.028000 0.503000 and clause ration 4.400000
c the planted solution is {1, 2, 4, 5, 7, 9, 10}
p cnf 10 44
-8 -1 3 0 
4 10 -3 0 
5 -8 2 0 
-9 -2 4 0 
-10 -6 -4 0 
-2 3 5 0 
-4 6 9 0 
-10 -2 7 0 
-2 -1 5 0 
4 10 -8 0 
10 9 1 0 
-9 -10 7 0 
3 10 8 0 
-8 6 -7 0 
-5 7 8 0 
10 4 2 0 
-3 -10 -1 0 
-6 8 -10 0 
-6 5 -3 0 
7 -2 -4 0 
4 6 -1 0 
2 -9 -7 0 
2 5 -1 0 
-9 -8 -5 0 
-7 2 -4 0 
5 8 -7 0 
-5 3 7 0 
-8 1 10 0 
10 9 4 0 
-2 3 7 0 
2 -7 6 0 
4 -5 3 0 
-1 -3 -7 0 
-5 -10 2 0 
-6 -5 -10 0 
5 2 7 0 
3 9 -7 0 
3 -9 -8 0 
-4 1 -7 0 
2 -8 7 0 
7 -5 -4 0 
3 9 -2 0 
-8 -6 7 0 
-7 2 -9 0 
